p tw 130 300
0 1
0 2
0 18
0 58
1 2
1 7
1 92
2 60
2 65
2 8
2 100
2 111
2 119
2 72
2 121
2 43
2 128
3 4
3 5
3 23
3 24
4 5
4 35
4 111
5 28
5 29
5 42
5 43
5 44
5 45
5 50
5 51
5 27
5 54
5 77
5 78
5 58
5 79
5 70
5 91
5 69
5 117
5 101
5 123
5 109
5 127
6 7
6 8
7 8
7 9
7 10
7 30
7 31
7 80
7 81
7 92
7 93
7 94
7 96
7 99
7 97
7 109
7 55
7 87
7 112
7 113
7 73
7 114
8 100
9 10
9 18
9 88
11 12
11 13
11 35
11 55
12 13
12 18
12 62
13 14
13 15
13 32
13 49
13 52
13 53
13 51
13 59
13 16
13 54
13 38
13 97
13 76
13 100
13 81
13 110
13 71
13 118
13 40
13 102
14 15
15 35
15 101
16 17
16 18
16 54
17 18
17 21
17 22
18 19
18 20
18 58
18 62
18 52
18 83
18 50
18 90
18 77
18 103
18 47
18 108
18 88
18 63
18 95
18 28
18 106
18 65
18 129
19 20
19 46
19 82
21 22
21 29
21 37
21 63
21 64
21 39
21 67
21 68
21 69
21 75
21 76
21 107
21 108
21 36
21 61
21 93
21 122
21 112
21 123
21 124
21 126
23 24
23 46
23 84
24 73
24 74
24 44
24 85
24 88
24 89
24 49
24 82
24 90
24 104
24 79
24 116
25 26
25 27
25 32
25 33
25 56
25 57
25 60
25 61
25 37
25 66
25 48
25 72
25 95
25 96
25 94
25 128
26 27
27 54
28 29
28 106
29 37
30 31
31 46
31 115
32 33
32 49
34 35
34 36
35 36
35 38
35 39
35 40
35 41
35 55
35 70
35 71
35 98
35 99
35 101
35 105
35 106
35 68
35 74
35 111
35 85
35 110
35 83
35 115
35 56
35 89
35 104
35 125
36 61
37 66
38 39
38 97
39 67
40 41
40 102
42 43
43 128
44 45
44 85
46 47
46 48
46 82
46 84
46 86
46 87
46 102
46 103
46 75
46 120
46 91
46 124
46 115
47 48
47 108
48 72
49 82
50 51
50 90
51 59
52 53
52 83
55 87
56 57
56 89
58 79
60 61
60 65
63 64
63 95
65 129
68 69
68 74
69 117
70 71
70 91
71 118
72 121
73 74
73 114
75 76
75 120
76 100
77 78
77 103
79 116
80 81
81 110
83 115
85 110
86 87
88 89
90 104
91 124
93 94
93 122
94 128
95 96
96 99
97 109
98 99
101 123
102 103
104 125
105 106
107 108
109 127
111 119
112 113
112 123
124 126
